DATASET = "thpack4";
INSTANCE = "055";

WIDTH = 233;
HEIGHT = 220;
LENGTH = 587;

NO_OF_SHAPES = 10;
size = [|
  100,94,28 |
  81,78,66 |
  111,49,21 |
  119,63,37 |
  72,50,30 |
  58,58,40 |
  108,55,29 |
  54,49,38 |
  69,46,44 |
  88,71,61 |
|];

verticality = [|
  0,0,1 |
  1,1,1 |
  0,0,1 |
  0,1,1 |
  0,1,1 |
  1,1,1 |
  0,1,1 |
  1,1,1 |
  1,1,1 |
  1,1,1 |
|];

box_count = [
  19,
  13,
  12,
  20,
  14,
  12,
  17,
  15,
  12,
  9,
];
